(set-option :trace true)
(set-option :smt.arith.propagate_eqs false)
(set-option :smt.arith.random_initial_value true)
(set-option :smt.arith.eager_eq_axioms false)
(declare-fun a () real)
(declare-fun b () real)
(declare-fun c () real)
(assert (< (* c (div b (+ a 2))) a))
(check-sat)